(set-logic QF_S)
(declare-fun var_0xINPUT_249459 () String)
(assert (and (= (len var_0xINPUT_249459) 0) (= (len var_0xINPUT_249459) 0) (not (= var_0xINPUT_249459 "ywUN4ZIDAC"))))
(check-sat var_0xINPUT_249459)